0000000000000000
0000000000000000
0000000000000000
0000000011000000
0000000111100000
0000000001100000
0000000001100000
0000000001100000
0000000001100000
0000000001100000
0000000001100000
0000000001100000
0000000001000000
0000000000000000
0000000000000000
0000000000000000
